c Random generated cnf formula, satisfiable: true
p cnf 10 50
9 -5 7 0
9 1 7 0
-5 7 9 0
-8 -5 3 0
-4 -5 9 0
10 -7 9 0
5 -7 6 0
-8 5 -1 0
9 4 -6 0
-3 7 -5 0
4 -1 3 0
-5 -9 2 0
10 -5 -4 0
1 4 6 0
-4 7 -3 0
7 -10 -2 0
1 3 -9 0
4 7 -8 0
-6 5 -10 0
-2 -7 -6 0
9 7 4 0
-4 -3 5 0
4 -3 10 0
-10 -5 6 0
-4 -6 -1 0
-1 8 -7 0
4 -3 -9 0
9 -1 -10 0
6 9 7 0
-8 3 7 0
6 -5 -1 0
-1 2 7 0
4 2 -3 0
1 6 -9 0
-9 7 2 0
-1 -7 2 0
-4 -2 -7 0
-3 -9 2 0
10 2 9 0
2 -1 -6 0
-6 10 8 0
2 9 -6 0
-1 7 2 0
1 10 5 0
10 9 2 0
-9 -7 -6 0
-8 -10 4 0
-1 -4 -5 0
-5 -7 -8 0
4 3 8 0
